sat
(
(define-fun S () String "")
(define-fun J () String "")
(define-fun I () String "")
(define-fun K () String "")
(define-fun H () String "aaaaaaaabbbb")
(define-fun V () String "aaaabaabaabbaa")
(define-fun G () String "")
(define-fun R () String "")
(define-fun U () String "")
(define-fun O () String "")
(define-fun M () String "")
(define-fun P () String "")
)
